
<<< setup

Version identifier: 22.1.1.0 | 2022-11-27 | 9160aff4d
Tried aggregator 1 time.
LP Presolve eliminated 115 rows and 99 columns.
All rows and columns eliminated.
Presolve time = 0.00 sec. (0.04 ticks)
main returns 0

<<< main


<<< done

